
  12    4
  10   10   10   10

   0   0   0   0   0   6 2 3 4 5 6 11 
   1  10  10  10  10   3 10 9 7 
   7  10  10  10  10   2 10 7 
   5  10  10  10  10   2 8 7 
   6  10  10  10  10   1 9 
   3  10  10  10  10   1 8 
   1  10  10  10  10   1 12
   7  10  10  10  10   1 12
   9  10  10  10  10   1 12
   7  10  10  10  10   1 12
   2  10  10  10  10   1 12
   0   0   0   0   0   0 
